# Solution for model Poisoning_Attack
# Objective value = 5.9815110072739541e-03
x_poison_cat[1,2,1] 0
x_poison_cat[1,2,2] 0
x_poison_cat[1,2,3] 1
x_poison_cat[1,2,4] 0
x_poison_cat[1,2,5] 0
weights_num[1] 1.3081466790063731e-02
weights_num[2] 3.5647949989396042e-03
weights_num[3] 1.4820113676214814e-02
weights_num[4] 9.9721882695845421e-03
weights_num[5] 5.4438246927875113e-03
self.weights_cat[1,1] 0
self.weights_cat[1,2] 2.2308032390896057e-03
self.weights_cat[1,3] 0
self.weights_cat[1,4] 1.2274908949094481e-02
self.weights_cat[1,5] 0
self.weights_cat[2,1] -2.6751085754115531e-02
self.weights_cat[2,2] 0
self.weights_cat[2,3] 0.00936460172565893
self.weights_cat[2,4] 0
self.weights_cat[2,5] 0
self.weights_cat[3,1] 0
self.weights_cat[3,2] 0
self.weights_cat[3,3] -1.2206410401582494e-02
self.weights_cat[3,4] 1.1038821199448566e-03
self.weights_cat[4,1] 0
self.weights_cat[4,2] 0
self.weights_cat[4,3] 1.2457229403600127e-02
self.weights_cat[4,4] -1.0371281871528854e-02
self.weights_cat[4,5] 5.2016731106872870e-03
self.weights_cat[4,6] 0
self.weights_cat[5,1] 0
self.weights_cat[5,2] -3.7644858017405682e-03
self.weights_cat[5,3] 6.2685345777169325e-03
self.weights_cat[5,4] -2.5040487759764654e-03
bias 0.222135563030151
tnn_ln_times_numsamples[1,1,1] 4.0374897500196705e-03
tnn_ln_times_numsamples[1,1,2] 6.9041074725336360e-03
tnn_ln_times_numsamples[1,1,3] 2.4224938500118018e-03
tnn_ln_times_numsamples[1,1,4] 1.8168703875088516e-03
tnn_ln_times_numsamples[1,1,5] 1.8168703875088516e-03
tnn_ln_times_numsamples[1,2,1] 0.00188141958277368
tnn_ln_times_numsamples[1,2,2] 3.2172274865429925e-03
tnn_ln_times_numsamples[1,2,3] 1.1288517496642078e-03
tnn_ln_times_numsamples[1,2,4] 8.4663881224815592e-04
tnn_ln_times_numsamples[1,2,5] 8.4663881224815592e-04
tnn_ln_times_numsamples[1,3,1] 2.7444654955953367e-03
tnn_ln_times_numsamples[1,3,2] 4.6930359974680248e-03
tnn_ln_times_numsamples[1,3,3] 1.6466792973572016e-03
tnn_ln_times_numsamples[1,3,4] 1.2350094730179011e-03
tnn_ln_times_numsamples[1,3,5] 1.2350094730179011e-03
tnn_ln_times_numsamples[1,4,1] 1.3850261485534089e-03
tnn_ln_times_numsamples[1,4,2] 2.3683947140263287e-03
tnn_ln_times_numsamples[1,4,3] 8.3101568913204510e-04
tnn_ln_times_numsamples[1,4,4] 6.2326176684903388e-04
tnn_ln_times_numsamples[1,4,5] 6.2326176684903388e-04
tnn_ln_times_numsamples[1,5,1] 7.5608676288715449e-04
tnn_ln_times_numsamples[1,5,2] 1.2929083645370340e-03
tnn_ln_times_numsamples[1,5,3] 4.5365205773229261e-04
tnn_ln_times_numsamples[1,5,4] 3.4023904329921945e-04
tnn_ln_times_numsamples[1,5,5] 3.4023904329921945e-04
tcn_lc_times_numsamples[1,1,1,1] 0
tcn_lc_times_numsamples[1,1,2,1] 0
tcn_lc_times_numsamples[1,1,3,1] 0
tcn_lc_times_numsamples[1,1,4,1] 0
tcn_lc_times_numsamples[1,1,5,1] 0
tcn_lc_times_numsamples[1,2,1,1] 0
tcn_lc_times_numsamples[1,2,2,1] 0
tcn_lc_times_numsamples[1,2,3,1] 5.2025565142549621e-03
tcn_lc_times_numsamples[1,2,4,1] 0
tcn_lc_times_numsamples[1,2,5,1] 0
tcn_lc_times_numsamples[1,3,1,1] 0
tcn_lc_times_numsamples[1,3,2,1] 0
tcn_lc_times_numsamples[1,3,3,1] -6.7813391119902764e-03
tcn_lc_times_numsamples[1,3,4,1] 0
tcn_lc_times_numsamples[1,4,1,1] 0
tcn_lc_times_numsamples[1,4,2,1] 0
tcn_lc_times_numsamples[1,4,3,1] 0
tcn_lc_times_numsamples[1,4,4,1] 0
tcn_lc_times_numsamples[1,4,5,1] 0
tcn_lc_times_numsamples[1,4,6,1] 0
tcn_lc_times_numsamples[1,5,1,1] 0
tcn_lc_times_numsamples[1,5,2,1] 0
tcn_lc_times_numsamples[1,5,3,1] 3.4825192098427412e-03
tcn_lc_times_numsamples[1,5,4,1] 0
tcn_lc_times_numsamples[1,1,1,2] 0
tcn_lc_times_numsamples[1,1,2,2] 0
tcn_lc_times_numsamples[1,1,3,2] 0
tcn_lc_times_numsamples[1,1,4,2] 0
tcn_lc_times_numsamples[1,1,5,2] 0
tcn_lc_times_numsamples[1,2,1,2] 0
tcn_lc_times_numsamples[1,2,2,2] 0
tcn_lc_times_numsamples[1,2,3,2] 8.8963716393759846e-03
tcn_lc_times_numsamples[1,2,4,2] 0
tcn_lc_times_numsamples[1,2,5,2] 0
tcn_lc_times_numsamples[1,3,1,2] 0
tcn_lc_times_numsamples[1,3,2,2] 0
tcn_lc_times_numsamples[1,3,3,2] -1.1596089881503371e-02
tcn_lc_times_numsamples[1,3,4,2] 0
tcn_lc_times_numsamples[1,4,1,2] 0
tcn_lc_times_numsamples[1,4,2,2] 0
tcn_lc_times_numsamples[1,4,3,2] 0
tcn_lc_times_numsamples[1,4,4,2] 0
tcn_lc_times_numsamples[1,4,5,2] 0
tcn_lc_times_numsamples[1,4,6,2] 0
tcn_lc_times_numsamples[1,5,1,2] 0
tcn_lc_times_numsamples[1,5,2,2] 0
tcn_lc_times_numsamples[1,5,3,2] 5.9551078488310864e-03
tcn_lc_times_numsamples[1,5,4,2] 0
tcn_lc_times_numsamples[1,1,1,3] 0
tcn_lc_times_numsamples[1,1,2,3] 0
tcn_lc_times_numsamples[1,1,3,3] 0
tcn_lc_times_numsamples[1,1,4,3] 0
tcn_lc_times_numsamples[1,1,5,3] 0
tcn_lc_times_numsamples[1,2,1,3] 0
tcn_lc_times_numsamples[1,2,2,3] 0
tcn_lc_times_numsamples[1,2,3,3] 3.1215339085529769e-03
tcn_lc_times_numsamples[1,2,4,3] 0
tcn_lc_times_numsamples[1,2,5,3] 0
tcn_lc_times_numsamples[1,3,1,3] 0
tcn_lc_times_numsamples[1,3,2,3] 0
tcn_lc_times_numsamples[1,3,3,3] -4.0688034671941646e-03
tcn_lc_times_numsamples[1,3,4,3] 0
tcn_lc_times_numsamples[1,4,1,3] 0
tcn_lc_times_numsamples[1,4,2,3] 0
tcn_lc_times_numsamples[1,4,3,3] 0
tcn_lc_times_numsamples[1,4,4,3] 0
tcn_lc_times_numsamples[1,4,5,3] 0
tcn_lc_times_numsamples[1,4,6,3] 0
tcn_lc_times_numsamples[1,5,1,3] 0
tcn_lc_times_numsamples[1,5,2,3] 0
tcn_lc_times_numsamples[1,5,3,3] 2.0895115259056442e-03
tcn_lc_times_numsamples[1,5,4,3] 0
tcn_lc_times_numsamples[1,1,1,4] 0
tcn_lc_times_numsamples[1,1,2,4] 0
tcn_lc_times_numsamples[1,1,3,4] 0
tcn_lc_times_numsamples[1,1,4,4] 0
tcn_lc_times_numsamples[1,1,5,4] 0
tcn_lc_times_numsamples[1,2,1,4] 0
tcn_lc_times_numsamples[1,2,2,4] 0
tcn_lc_times_numsamples[1,2,3,4] 2.3411504314147327e-03
tcn_lc_times_numsamples[1,2,4,4] 0
tcn_lc_times_numsamples[1,2,5,4] 0
tcn_lc_times_numsamples[1,3,1,4] 0
tcn_lc_times_numsamples[1,3,2,4] 0
tcn_lc_times_numsamples[1,3,3,4] -3.0516026003956239e-03
tcn_lc_times_numsamples[1,3,4,4] 0
tcn_lc_times_numsamples[1,4,1,4] 0
tcn_lc_times_numsamples[1,4,2,4] 0
tcn_lc_times_numsamples[1,4,3,4] 0
tcn_lc_times_numsamples[1,4,4,4] 0
tcn_lc_times_numsamples[1,4,5,4] 0
tcn_lc_times_numsamples[1,4,6,4] 0
tcn_lc_times_numsamples[1,5,1,4] 0
tcn_lc_times_numsamples[1,5,2,4] 0
tcn_lc_times_numsamples[1,5,3,4] 1.5671336444292331e-03
tcn_lc_times_numsamples[1,5,4,4] 0
tcn_lc_times_numsamples[1,1,1,5] 0
tcn_lc_times_numsamples[1,1,2,5] 0
tcn_lc_times_numsamples[1,1,3,5] 0
tcn_lc_times_numsamples[1,1,4,5] 0
tcn_lc_times_numsamples[1,1,5,5] 0
tcn_lc_times_numsamples[1,2,1,5] 0
tcn_lc_times_numsamples[1,2,2,5] 0
tcn_lc_times_numsamples[1,2,3,5] 2.3411504314147327e-03
tcn_lc_times_numsamples[1,2,4,5] 0
tcn_lc_times_numsamples[1,2,5,5] 0
tcn_lc_times_numsamples[1,3,1,5] 0
tcn_lc_times_numsamples[1,3,2,5] 0
tcn_lc_times_numsamples[1,3,3,5] -3.0516026003956239e-03
tcn_lc_times_numsamples[1,3,4,5] 0
tcn_lc_times_numsamples[1,4,1,5] 0
tcn_lc_times_numsamples[1,4,2,5] 0
tcn_lc_times_numsamples[1,4,3,5] 0
tcn_lc_times_numsamples[1,4,4,5] 0
tcn_lc_times_numsamples[1,4,5,5] 0
tcn_lc_times_numsamples[1,4,6,5] 0
tcn_lc_times_numsamples[1,5,1,5] 0
tcn_lc_times_numsamples[1,5,2,5] 0
tcn_lc_times_numsamples[1,5,3,5] 1.5671336444292331e-03
tcn_lc_times_numsamples[1,5,4,5] 0
tnc_ln_times_catsamples[1,1,1,1] 0
tnc_ln_times_catsamples[1,1,1,2] 0
tnc_ln_times_catsamples[1,1,1,3] 0
tnc_ln_times_catsamples[1,1,1,4] 0
tnc_ln_times_catsamples[1,1,1,5] 0
tnc_ln_times_catsamples[1,1,2,1] 0
tnc_ln_times_catsamples[1,1,2,2] 0
tnc_ln_times_catsamples[1,1,2,3] 7.2674815500359813e-03
tnc_ln_times_catsamples[1,1,2,4] 0
tnc_ln_times_catsamples[1,1,2,5] 0
tnc_ln_times_catsamples[1,1,3,1] 0
tnc_ln_times_catsamples[1,1,3,2] 0
tnc_ln_times_catsamples[1,1,3,3] 7.2674815500354062e-03
tnc_ln_times_catsamples[1,1,3,4] 0
tnc_ln_times_catsamples[1,1,4,1] 0
tnc_ln_times_catsamples[1,1,4,2] 0
tnc_ln_times_catsamples[1,1,4,3] 0
tnc_ln_times_catsamples[1,1,4,4] 0
tnc_ln_times_catsamples[1,1,4,5] 0
tnc_ln_times_catsamples[1,1,4,6] 0
tnc_ln_times_catsamples[1,1,5,1] 0
tnc_ln_times_catsamples[1,1,5,2] 0
tnc_ln_times_catsamples[1,1,5,3] 7.2674815500354062e-03
tnc_ln_times_catsamples[1,1,5,4] 0
tnc_ln_times_catsamples[1,2,1,1] 0
tnc_ln_times_catsamples[1,2,1,2] 0
tnc_ln_times_catsamples[1,2,1,3] 0
tnc_ln_times_catsamples[1,2,1,4] 0
tnc_ln_times_catsamples[1,2,1,5] 0
tnc_ln_times_catsamples[1,2,2,1] 0
tnc_ln_times_catsamples[1,2,2,2] 0
tnc_ln_times_catsamples[1,2,2,3] 3.3865552489915902e-03
tnc_ln_times_catsamples[1,2,2,4] 0
tnc_ln_times_catsamples[1,2,2,5] 0
tnc_ln_times_catsamples[1,2,3,1] 0
tnc_ln_times_catsamples[1,2,3,2] 0
tnc_ln_times_catsamples[1,2,3,3] 3.3865552489926237e-03
tnc_ln_times_catsamples[1,2,3,4] 0
tnc_ln_times_catsamples[1,2,4,1] 0
tnc_ln_times_catsamples[1,2,4,2] 0
tnc_ln_times_catsamples[1,2,4,3] 0
tnc_ln_times_catsamples[1,2,4,4] 0
tnc_ln_times_catsamples[1,2,4,5] 0
tnc_ln_times_catsamples[1,2,4,6] 0
tnc_ln_times_catsamples[1,2,5,1] 0
tnc_ln_times_catsamples[1,2,5,2] 0
tnc_ln_times_catsamples[1,2,5,3] 3.3865552489926237e-03
tnc_ln_times_catsamples[1,2,5,4] 0
tnc_ln_times_catsamples[1,3,1,1] 0
tnc_ln_times_catsamples[1,3,1,2] 0
tnc_ln_times_catsamples[1,3,1,3] 0
tnc_ln_times_catsamples[1,3,1,4] 0
tnc_ln_times_catsamples[1,3,1,5] 0
tnc_ln_times_catsamples[1,3,2,1] 0
tnc_ln_times_catsamples[1,3,2,2] 0
tnc_ln_times_catsamples[1,3,2,3] 4.9400378920716045e-03
tnc_ln_times_catsamples[1,3,2,4] 0
tnc_ln_times_catsamples[1,3,2,5] 0
tnc_ln_times_catsamples[1,3,3,1] 0
tnc_ln_times_catsamples[1,3,3,2] 0
tnc_ln_times_catsamples[1,3,3,3] 4.9400378920716045e-03
tnc_ln_times_catsamples[1,3,3,4] 0
tnc_ln_times_catsamples[1,3,4,1] 0
tnc_ln_times_catsamples[1,3,4,2] 0
tnc_ln_times_catsamples[1,3,4,3] 0
tnc_ln_times_catsamples[1,3,4,4] 0
tnc_ln_times_catsamples[1,3,4,5] 0
tnc_ln_times_catsamples[1,3,4,6] 0
tnc_ln_times_catsamples[1,3,5,1] 0
tnc_ln_times_catsamples[1,3,5,2] 0
tnc_ln_times_catsamples[1,3,5,3] 4.9400378920716045e-03
tnc_ln_times_catsamples[1,3,5,4] 0
tnc_ln_times_catsamples[1,4,1,1] 0
tnc_ln_times_catsamples[1,4,1,2] 0
tnc_ln_times_catsamples[1,4,1,3] 0
tnc_ln_times_catsamples[1,4,1,4] 0
tnc_ln_times_catsamples[1,4,1,5] 0
tnc_ln_times_catsamples[1,4,2,1] 0
tnc_ln_times_catsamples[1,4,2,2] 0
tnc_ln_times_catsamples[1,4,2,3] 2.4930470673961355e-03
tnc_ln_times_catsamples[1,4,2,4] 0
tnc_ln_times_catsamples[1,4,2,5] 0
tnc_ln_times_catsamples[1,4,3,1] 0
tnc_ln_times_catsamples[1,4,3,2] 0
tnc_ln_times_catsamples[1,4,3,3] 2.4930470673961355e-03
tnc_ln_times_catsamples[1,4,3,4] 0
tnc_ln_times_catsamples[1,4,4,1] 0
tnc_ln_times_catsamples[1,4,4,2] 0
tnc_ln_times_catsamples[1,4,4,3] 0
tnc_ln_times_catsamples[1,4,4,4] 0
tnc_ln_times_catsamples[1,4,4,5] 0
tnc_ln_times_catsamples[1,4,4,6] 0
tnc_ln_times_catsamples[1,4,5,1] 0
tnc_ln_times_catsamples[1,4,5,2] 0
tnc_ln_times_catsamples[1,4,5,3] 2.4930470673961355e-03
tnc_ln_times_catsamples[1,4,5,4] 0
tnc_ln_times_catsamples[1,5,1,1] 0
tnc_ln_times_catsamples[1,5,1,2] 0
tnc_ln_times_catsamples[1,5,1,3] 0
tnc_ln_times_catsamples[1,5,1,4] 0
tnc_ln_times_catsamples[1,5,1,5] 0
tnc_ln_times_catsamples[1,5,2,1] 0
tnc_ln_times_catsamples[1,5,2,2] 0
tnc_ln_times_catsamples[1,5,2,3] 1.3609561731968778e-03
tnc_ln_times_catsamples[1,5,2,4] 0
tnc_ln_times_catsamples[1,5,2,5] 0
tnc_ln_times_catsamples[1,5,3,1] 0
tnc_ln_times_catsamples[1,5,3,2] 0
tnc_ln_times_catsamples[1,5,3,3] 1.3609561731968778e-03
tnc_ln_times_catsamples[1,5,3,4] 0
tnc_ln_times_catsamples[1,5,4,1] 0
tnc_ln_times_catsamples[1,5,4,2] 0
tnc_ln_times_catsamples[1,5,4,3] 0
tnc_ln_times_catsamples[1,5,4,4] 0
tnc_ln_times_catsamples[1,5,4,5] 0
tnc_ln_times_catsamples[1,5,4,6] 0
tnc_ln_times_catsamples[1,5,5,1] 0
tnc_ln_times_catsamples[1,5,5,2] 0
tnc_ln_times_catsamples[1,5,5,3] 1.3609561731968778e-03
tnc_ln_times_catsamples[1,5,5,4] 0
tcc_lc_times_catsample[1,1,1,1,1] 0
tcc_lc_times_catsample[1,1,1,1,2] 0
tcc_lc_times_catsample[1,1,1,1,3] 0
tcc_lc_times_catsample[1,1,1,1,4] 0
tcc_lc_times_catsample[1,1,1,1,5] 0
tcc_lc_times_catsample[1,1,1,2,1] 0
tcc_lc_times_catsample[1,1,1,2,2] 0
tcc_lc_times_catsample[1,1,1,2,3] 0
tcc_lc_times_catsample[1,1,1,2,4] 0
tcc_lc_times_catsample[1,1,1,2,5] 0
tcc_lc_times_catsample[1,1,1,3,1] 0
tcc_lc_times_catsample[1,1,1,3,2] 0
tcc_lc_times_catsample[1,1,1,3,3] 0
tcc_lc_times_catsample[1,1,1,3,4] 0
tcc_lc_times_catsample[1,1,1,4,1] 0
tcc_lc_times_catsample[1,1,1,4,2] 0
tcc_lc_times_catsample[1,1,1,4,3] 0
tcc_lc_times_catsample[1,1,1,4,4] 0
tcc_lc_times_catsample[1,1,1,4,5] 0
tcc_lc_times_catsample[1,1,1,4,6] 0
tcc_lc_times_catsample[1,1,1,5,1] 0
tcc_lc_times_catsample[1,1,1,5,2] 0
tcc_lc_times_catsample[1,1,1,5,3] 0
tcc_lc_times_catsample[1,1,1,5,4] 0
tcc_lc_times_catsample[1,1,2,1,1] 0
tcc_lc_times_catsample[1,1,2,1,2] 0
tcc_lc_times_catsample[1,1,2,1,3] 0
tcc_lc_times_catsample[1,1,2,1,4] 0
tcc_lc_times_catsample[1,1,2,1,5] 0
tcc_lc_times_catsample[1,1,2,2,1] 0
tcc_lc_times_catsample[1,1,2,2,2] 0
tcc_lc_times_catsample[1,1,2,2,3] 0
tcc_lc_times_catsample[1,1,2,2,4] 0
tcc_lc_times_catsample[1,1,2,2,5] 0
tcc_lc_times_catsample[1,1,2,3,1] 0
tcc_lc_times_catsample[1,1,2,3,2] 0
tcc_lc_times_catsample[1,1,2,3,3] 0
tcc_lc_times_catsample[1,1,2,3,4] 0
tcc_lc_times_catsample[1,1,2,4,1] 0
tcc_lc_times_catsample[1,1,2,4,2] 0
tcc_lc_times_catsample[1,1,2,4,3] 0
tcc_lc_times_catsample[1,1,2,4,4] 0
tcc_lc_times_catsample[1,1,2,4,5] 0
tcc_lc_times_catsample[1,1,2,4,6] 0
tcc_lc_times_catsample[1,1,2,5,1] 0
tcc_lc_times_catsample[1,1,2,5,2] 0
tcc_lc_times_catsample[1,1,2,5,3] 0
tcc_lc_times_catsample[1,1,2,5,4] 0
tcc_lc_times_catsample[1,1,3,1,1] 0
tcc_lc_times_catsample[1,1,3,1,2] 0
tcc_lc_times_catsample[1,1,3,1,3] 0
tcc_lc_times_catsample[1,1,3,1,4] 0
tcc_lc_times_catsample[1,1,3,1,5] 0
tcc_lc_times_catsample[1,1,3,2,1] 0
tcc_lc_times_catsample[1,1,3,2,2] 0
tcc_lc_times_catsample[1,1,3,2,3] 0
tcc_lc_times_catsample[1,1,3,2,4] 0
tcc_lc_times_catsample[1,1,3,2,5] 0
tcc_lc_times_catsample[1,1,3,3,1] 0
tcc_lc_times_catsample[1,1,3,3,2] 0
tcc_lc_times_catsample[1,1,3,3,3] 0
tcc_lc_times_catsample[1,1,3,3,4] 0
tcc_lc_times_catsample[1,1,3,4,1] 0
tcc_lc_times_catsample[1,1,3,4,2] 0
tcc_lc_times_catsample[1,1,3,4,3] 0
tcc_lc_times_catsample[1,1,3,4,4] 0
tcc_lc_times_catsample[1,1,3,4,5] 0
tcc_lc_times_catsample[1,1,3,4,6] 0
tcc_lc_times_catsample[1,1,3,5,1] 0
tcc_lc_times_catsample[1,1,3,5,2] 0
tcc_lc_times_catsample[1,1,3,5,3] 0
tcc_lc_times_catsample[1,1,3,5,4] 0
tcc_lc_times_catsample[1,1,4,1,1] 0
tcc_lc_times_catsample[1,1,4,1,2] 0
tcc_lc_times_catsample[1,1,4,1,3] 0
tcc_lc_times_catsample[1,1,4,1,4] 0
tcc_lc_times_catsample[1,1,4,1,5] 0
tcc_lc_times_catsample[1,1,4,2,1] 0
tcc_lc_times_catsample[1,1,4,2,2] 0
tcc_lc_times_catsample[1,1,4,2,3] 0
tcc_lc_times_catsample[1,1,4,2,4] 0
tcc_lc_times_catsample[1,1,4,2,5] 0
tcc_lc_times_catsample[1,1,4,3,1] 0
tcc_lc_times_catsample[1,1,4,3,2] 0
tcc_lc_times_catsample[1,1,4,3,3] 0
tcc_lc_times_catsample[1,1,4,3,4] 0
tcc_lc_times_catsample[1,1,4,4,1] 0
tcc_lc_times_catsample[1,1,4,4,2] 0
tcc_lc_times_catsample[1,1,4,4,3] 0
tcc_lc_times_catsample[1,1,4,4,4] 0
tcc_lc_times_catsample[1,1,4,4,5] 0
tcc_lc_times_catsample[1,1,4,4,6] 0
tcc_lc_times_catsample[1,1,4,5,1] 0
tcc_lc_times_catsample[1,1,4,5,2] 0
tcc_lc_times_catsample[1,1,4,5,3] 0
tcc_lc_times_catsample[1,1,4,5,4] 0
tcc_lc_times_catsample[1,1,5,1,1] 0
tcc_lc_times_catsample[1,1,5,1,2] 0
tcc_lc_times_catsample[1,1,5,1,3] 0
tcc_lc_times_catsample[1,1,5,1,4] 0
tcc_lc_times_catsample[1,1,5,1,5] 0
tcc_lc_times_catsample[1,1,5,2,1] 0
tcc_lc_times_catsample[1,1,5,2,2] 0
tcc_lc_times_catsample[1,1,5,2,3] 0
tcc_lc_times_catsample[1,1,5,2,4] 0
tcc_lc_times_catsample[1,1,5,2,5] 0
tcc_lc_times_catsample[1,1,5,3,1] 0
tcc_lc_times_catsample[1,1,5,3,2] 0
tcc_lc_times_catsample[1,1,5,3,3] 0
tcc_lc_times_catsample[1,1,5,3,4] 0
tcc_lc_times_catsample[1,1,5,4,1] 0
tcc_lc_times_catsample[1,1,5,4,2] 0
tcc_lc_times_catsample[1,1,5,4,3] 0
tcc_lc_times_catsample[1,1,5,4,4] 0
tcc_lc_times_catsample[1,1,5,4,5] 0
tcc_lc_times_catsample[1,1,5,4,6] 0
tcc_lc_times_catsample[1,1,5,5,1] 0
tcc_lc_times_catsample[1,1,5,5,2] 0
tcc_lc_times_catsample[1,1,5,5,3] 0
tcc_lc_times_catsample[1,1,5,5,4] 0
tcc_lc_times_catsample[1,2,1,1,1] 0
tcc_lc_times_catsample[1,2,1,1,2] 0
tcc_lc_times_catsample[1,2,1,1,3] 0
tcc_lc_times_catsample[1,2,1,1,4] 0
tcc_lc_times_catsample[1,2,1,1,5] 0
tcc_lc_times_catsample[1,2,1,2,1] 0
tcc_lc_times_catsample[1,2,1,2,2] 0
tcc_lc_times_catsample[1,2,1,2,3] 0
tcc_lc_times_catsample[1,2,1,2,4] 0
tcc_lc_times_catsample[1,2,1,2,5] 0
tcc_lc_times_catsample[1,2,1,3,1] 0
tcc_lc_times_catsample[1,2,1,3,2] 0
tcc_lc_times_catsample[1,2,1,3,3] 0
tcc_lc_times_catsample[1,2,1,3,4] 0
tcc_lc_times_catsample[1,2,1,4,1] 0
tcc_lc_times_catsample[1,2,1,4,2] 0
tcc_lc_times_catsample[1,2,1,4,3] 0
tcc_lc_times_catsample[1,2,1,4,4] 0
tcc_lc_times_catsample[1,2,1,4,5] 0
tcc_lc_times_catsample[1,2,1,4,6] 0
tcc_lc_times_catsample[1,2,1,5,1] 0
tcc_lc_times_catsample[1,2,1,5,2] 0
tcc_lc_times_catsample[1,2,1,5,3] 0
tcc_lc_times_catsample[1,2,1,5,4] 0
tcc_lc_times_catsample[1,2,2,1,1] 0
tcc_lc_times_catsample[1,2,2,1,2] 0
tcc_lc_times_catsample[1,2,2,1,3] 0
tcc_lc_times_catsample[1,2,2,1,4] 0
tcc_lc_times_catsample[1,2,2,1,5] 0
tcc_lc_times_catsample[1,2,2,2,1] 0
tcc_lc_times_catsample[1,2,2,2,2] 0
tcc_lc_times_catsample[1,2,2,2,3] 0
tcc_lc_times_catsample[1,2,2,2,4] 0
tcc_lc_times_catsample[1,2,2,2,5] 0
tcc_lc_times_catsample[1,2,2,3,1] 0
tcc_lc_times_catsample[1,2,2,3,2] 0
tcc_lc_times_catsample[1,2,2,3,3] 0
tcc_lc_times_catsample[1,2,2,3,4] 0
tcc_lc_times_catsample[1,2,2,4,1] 0
tcc_lc_times_catsample[1,2,2,4,2] 0
tcc_lc_times_catsample[1,2,2,4,3] 0
tcc_lc_times_catsample[1,2,2,4,4] 0
tcc_lc_times_catsample[1,2,2,4,5] 0
tcc_lc_times_catsample[1,2,2,4,6] 0
tcc_lc_times_catsample[1,2,2,5,1] 0
tcc_lc_times_catsample[1,2,2,5,2] 0
tcc_lc_times_catsample[1,2,2,5,3] 0
tcc_lc_times_catsample[1,2,2,5,4] 0
tcc_lc_times_catsample[1,2,3,1,1] 0
tcc_lc_times_catsample[1,2,3,1,2] 0
tcc_lc_times_catsample[1,2,3,1,3] 0
tcc_lc_times_catsample[1,2,3,1,4] 0
tcc_lc_times_catsample[1,2,3,1,5] 0
tcc_lc_times_catsample[1,2,3,2,1] 0
tcc_lc_times_catsample[1,2,3,2,2] 0
tcc_lc_times_catsample[1,2,3,2,3] 0.00936460172565893
tcc_lc_times_catsample[1,2,3,2,4] 0
tcc_lc_times_catsample[1,2,3,2,5] 0
tcc_lc_times_catsample[1,2,3,3,1] 0
tcc_lc_times_catsample[1,2,3,3,2] 0
tcc_lc_times_catsample[1,2,3,3,3] 0.00936460172565893
tcc_lc_times_catsample[1,2,3,3,4] 0
tcc_lc_times_catsample[1,2,3,4,1] 0
tcc_lc_times_catsample[1,2,3,4,2] 0
tcc_lc_times_catsample[1,2,3,4,3] 0
tcc_lc_times_catsample[1,2,3,4,4] 0
tcc_lc_times_catsample[1,2,3,4,5] 0
tcc_lc_times_catsample[1,2,3,4,6] 0
tcc_lc_times_catsample[1,2,3,5,1] 0
tcc_lc_times_catsample[1,2,3,5,2] 0
tcc_lc_times_catsample[1,2,3,5,3] 0.00936460172565893
tcc_lc_times_catsample[1,2,3,5,4] 0
tcc_lc_times_catsample[1,2,4,1,1] 0
tcc_lc_times_catsample[1,2,4,1,2] 0
tcc_lc_times_catsample[1,2,4,1,3] 0
tcc_lc_times_catsample[1,2,4,1,4] 0
tcc_lc_times_catsample[1,2,4,1,5] 0
tcc_lc_times_catsample[1,2,4,2,1] 0
tcc_lc_times_catsample[1,2,4,2,2] 0
tcc_lc_times_catsample[1,2,4,2,3] 0
tcc_lc_times_catsample[1,2,4,2,4] 0
tcc_lc_times_catsample[1,2,4,2,5] 0
tcc_lc_times_catsample[1,2,4,3,1] 0
tcc_lc_times_catsample[1,2,4,3,2] 0
tcc_lc_times_catsample[1,2,4,3,3] 0
tcc_lc_times_catsample[1,2,4,3,4] 0
tcc_lc_times_catsample[1,2,4,4,1] 0
tcc_lc_times_catsample[1,2,4,4,2] 0
tcc_lc_times_catsample[1,2,4,4,3] 0
tcc_lc_times_catsample[1,2,4,4,4] 0
tcc_lc_times_catsample[1,2,4,4,5] 0
tcc_lc_times_catsample[1,2,4,4,6] 0
tcc_lc_times_catsample[1,2,4,5,1] 0
tcc_lc_times_catsample[1,2,4,5,2] 0
tcc_lc_times_catsample[1,2,4,5,3] 0
tcc_lc_times_catsample[1,2,4,5,4] 0
tcc_lc_times_catsample[1,2,5,1,1] 0
tcc_lc_times_catsample[1,2,5,1,2] 0
tcc_lc_times_catsample[1,2,5,1,3] 0
tcc_lc_times_catsample[1,2,5,1,4] 0
tcc_lc_times_catsample[1,2,5,1,5] 0
tcc_lc_times_catsample[1,2,5,2,1] 0
tcc_lc_times_catsample[1,2,5,2,2] 0
tcc_lc_times_catsample[1,2,5,2,3] 0
tcc_lc_times_catsample[1,2,5,2,4] 0
tcc_lc_times_catsample[1,2,5,2,5] 0
tcc_lc_times_catsample[1,2,5,3,1] 0
tcc_lc_times_catsample[1,2,5,3,2] 0
tcc_lc_times_catsample[1,2,5,3,3] 0
tcc_lc_times_catsample[1,2,5,3,4] 0
tcc_lc_times_catsample[1,2,5,4,1] 0
tcc_lc_times_catsample[1,2,5,4,2] 0
tcc_lc_times_catsample[1,2,5,4,3] 0
tcc_lc_times_catsample[1,2,5,4,4] 0
tcc_lc_times_catsample[1,2,5,4,5] 0
tcc_lc_times_catsample[1,2,5,4,6] 0
tcc_lc_times_catsample[1,2,5,5,1] 0
tcc_lc_times_catsample[1,2,5,5,2] 0
tcc_lc_times_catsample[1,2,5,5,3] 0
tcc_lc_times_catsample[1,2,5,5,4] 0
tcc_lc_times_catsample[1,3,1,1,1] 0
tcc_lc_times_catsample[1,3,1,1,2] 0
tcc_lc_times_catsample[1,3,1,1,3] 0
tcc_lc_times_catsample[1,3,1,1,4] 0
tcc_lc_times_catsample[1,3,1,1,5] 0
tcc_lc_times_catsample[1,3,1,2,1] 0
tcc_lc_times_catsample[1,3,1,2,2] 0
tcc_lc_times_catsample[1,3,1,2,3] 0
tcc_lc_times_catsample[1,3,1,2,4] 0
tcc_lc_times_catsample[1,3,1,2,5] 0
tcc_lc_times_catsample[1,3,1,3,1] 0
tcc_lc_times_catsample[1,3,1,3,2] 0
tcc_lc_times_catsample[1,3,1,3,3] 0
tcc_lc_times_catsample[1,3,1,3,4] 0
tcc_lc_times_catsample[1,3,1,4,1] 0
tcc_lc_times_catsample[1,3,1,4,2] 0
tcc_lc_times_catsample[1,3,1,4,3] 0
tcc_lc_times_catsample[1,3,1,4,4] 0
tcc_lc_times_catsample[1,3,1,4,5] 0
tcc_lc_times_catsample[1,3,1,4,6] 0
tcc_lc_times_catsample[1,3,1,5,1] 0
tcc_lc_times_catsample[1,3,1,5,2] 0
tcc_lc_times_catsample[1,3,1,5,3] 0
tcc_lc_times_catsample[1,3,1,5,4] 0
tcc_lc_times_catsample[1,3,2,1,1] 0
tcc_lc_times_catsample[1,3,2,1,2] 0
tcc_lc_times_catsample[1,3,2,1,3] 0
tcc_lc_times_catsample[1,3,2,1,4] 0
tcc_lc_times_catsample[1,3,2,1,5] 0
tcc_lc_times_catsample[1,3,2,2,1] 0
tcc_lc_times_catsample[1,3,2,2,2] 0
tcc_lc_times_catsample[1,3,2,2,3] 0
tcc_lc_times_catsample[1,3,2,2,4] 0
tcc_lc_times_catsample[1,3,2,2,5] 0
tcc_lc_times_catsample[1,3,2,3,1] 0
tcc_lc_times_catsample[1,3,2,3,2] 0
tcc_lc_times_catsample[1,3,2,3,3] 0
tcc_lc_times_catsample[1,3,2,3,4] 0
tcc_lc_times_catsample[1,3,2,4,1] 0
tcc_lc_times_catsample[1,3,2,4,2] 0
tcc_lc_times_catsample[1,3,2,4,3] 0
tcc_lc_times_catsample[1,3,2,4,4] 0
tcc_lc_times_catsample[1,3,2,4,5] 0
tcc_lc_times_catsample[1,3,2,4,6] 0
tcc_lc_times_catsample[1,3,2,5,1] 0
tcc_lc_times_catsample[1,3,2,5,2] 0
tcc_lc_times_catsample[1,3,2,5,3] 0
tcc_lc_times_catsample[1,3,2,5,4] 0
tcc_lc_times_catsample[1,3,3,1,1] 0
tcc_lc_times_catsample[1,3,3,1,2] 0
tcc_lc_times_catsample[1,3,3,1,3] 0
tcc_lc_times_catsample[1,3,3,1,4] 0
tcc_lc_times_catsample[1,3,3,1,5] 0
tcc_lc_times_catsample[1,3,3,2,1] 0
tcc_lc_times_catsample[1,3,3,2,2] 0
tcc_lc_times_catsample[1,3,3,2,3] -1.2206410401582494e-02
tcc_lc_times_catsample[1,3,3,2,4] 0
tcc_lc_times_catsample[1,3,3,2,5] 0
tcc_lc_times_catsample[1,3,3,3,1] 0
tcc_lc_times_catsample[1,3,3,3,2] 0
tcc_lc_times_catsample[1,3,3,3,3] -1.2206410401582496e-02
tcc_lc_times_catsample[1,3,3,3,4] 0
tcc_lc_times_catsample[1,3,3,4,1] 0
tcc_lc_times_catsample[1,3,3,4,2] 0
tcc_lc_times_catsample[1,3,3,4,3] 0
tcc_lc_times_catsample[1,3,3,4,4] 0
tcc_lc_times_catsample[1,3,3,4,5] 0
tcc_lc_times_catsample[1,3,3,4,6] 0
tcc_lc_times_catsample[1,3,3,5,1] 0
tcc_lc_times_catsample[1,3,3,5,2] 0
tcc_lc_times_catsample[1,3,3,5,3] -1.2206410401582496e-02
tcc_lc_times_catsample[1,3,3,5,4] 0
tcc_lc_times_catsample[1,3,4,1,1] 0
tcc_lc_times_catsample[1,3,4,1,2] 0
tcc_lc_times_catsample[1,3,4,1,3] 0
tcc_lc_times_catsample[1,3,4,1,4] 0
tcc_lc_times_catsample[1,3,4,1,5] 0
tcc_lc_times_catsample[1,3,4,2,1] 0
tcc_lc_times_catsample[1,3,4,2,2] 0
tcc_lc_times_catsample[1,3,4,2,3] 0
tcc_lc_times_catsample[1,3,4,2,4] 0
tcc_lc_times_catsample[1,3,4,2,5] 0
tcc_lc_times_catsample[1,3,4,3,1] 0
tcc_lc_times_catsample[1,3,4,3,2] 0
tcc_lc_times_catsample[1,3,4,3,3] 0
tcc_lc_times_catsample[1,3,4,3,4] 0
tcc_lc_times_catsample[1,3,4,4,1] 0
tcc_lc_times_catsample[1,3,4,4,2] 0
tcc_lc_times_catsample[1,3,4,4,3] 0
tcc_lc_times_catsample[1,3,4,4,4] 0
tcc_lc_times_catsample[1,3,4,4,5] 0
tcc_lc_times_catsample[1,3,4,4,6] 0
tcc_lc_times_catsample[1,3,4,5,1] 0
tcc_lc_times_catsample[1,3,4,5,2] 0
tcc_lc_times_catsample[1,3,4,5,3] 0
tcc_lc_times_catsample[1,3,4,5,4] 0
tcc_lc_times_catsample[1,4,1,1,1] 0
tcc_lc_times_catsample[1,4,1,1,2] 0
tcc_lc_times_catsample[1,4,1,1,3] 0
tcc_lc_times_catsample[1,4,1,1,4] 0
tcc_lc_times_catsample[1,4,1,1,5] 0
tcc_lc_times_catsample[1,4,1,2,1] 0
tcc_lc_times_catsample[1,4,1,2,2] 0
tcc_lc_times_catsample[1,4,1,2,3] 0
tcc_lc_times_catsample[1,4,1,2,4] 0
tcc_lc_times_catsample[1,4,1,2,5] 0
tcc_lc_times_catsample[1,4,1,3,1] 0
tcc_lc_times_catsample[1,4,1,3,2] 0
tcc_lc_times_catsample[1,4,1,3,3] 0
tcc_lc_times_catsample[1,4,1,3,4] 0
tcc_lc_times_catsample[1,4,1,4,1] 0
tcc_lc_times_catsample[1,4,1,4,2] 0
tcc_lc_times_catsample[1,4,1,4,3] 0
tcc_lc_times_catsample[1,4,1,4,4] 0
tcc_lc_times_catsample[1,4,1,4,5] 0
tcc_lc_times_catsample[1,4,1,4,6] 0
tcc_lc_times_catsample[1,4,1,5,1] 0
tcc_lc_times_catsample[1,4,1,5,2] 0
tcc_lc_times_catsample[1,4,1,5,3] 0
tcc_lc_times_catsample[1,4,1,5,4] 0
tcc_lc_times_catsample[1,4,2,1,1] 0
tcc_lc_times_catsample[1,4,2,1,2] 0
tcc_lc_times_catsample[1,4,2,1,3] 0
tcc_lc_times_catsample[1,4,2,1,4] 0
tcc_lc_times_catsample[1,4,2,1,5] 0
tcc_lc_times_catsample[1,4,2,2,1] 0
tcc_lc_times_catsample[1,4,2,2,2] 0
tcc_lc_times_catsample[1,4,2,2,3] 0
tcc_lc_times_catsample[1,4,2,2,4] 0
tcc_lc_times_catsample[1,4,2,2,5] 0
tcc_lc_times_catsample[1,4,2,3,1] 0
tcc_lc_times_catsample[1,4,2,3,2] 0
tcc_lc_times_catsample[1,4,2,3,3] 0
tcc_lc_times_catsample[1,4,2,3,4] 0
tcc_lc_times_catsample[1,4,2,4,1] 0
tcc_lc_times_catsample[1,4,2,4,2] 0
tcc_lc_times_catsample[1,4,2,4,3] 0
tcc_lc_times_catsample[1,4,2,4,4] 0
tcc_lc_times_catsample[1,4,2,4,5] 0
tcc_lc_times_catsample[1,4,2,4,6] 0
tcc_lc_times_catsample[1,4,2,5,1] 0
tcc_lc_times_catsample[1,4,2,5,2] 0
tcc_lc_times_catsample[1,4,2,5,3] 0
tcc_lc_times_catsample[1,4,2,5,4] 0
tcc_lc_times_catsample[1,4,3,1,1] 0
tcc_lc_times_catsample[1,4,3,1,2] 0
tcc_lc_times_catsample[1,4,3,1,3] 0
tcc_lc_times_catsample[1,4,3,1,4] 0
tcc_lc_times_catsample[1,4,3,1,5] 0
tcc_lc_times_catsample[1,4,3,2,1] 0
tcc_lc_times_catsample[1,4,3,2,2] 0
tcc_lc_times_catsample[1,4,3,2,3] 0
tcc_lc_times_catsample[1,4,3,2,4] 0
tcc_lc_times_catsample[1,4,3,2,5] 0
tcc_lc_times_catsample[1,4,3,3,1] 0
tcc_lc_times_catsample[1,4,3,3,2] 0
tcc_lc_times_catsample[1,4,3,3,3] 0
tcc_lc_times_catsample[1,4,3,3,4] 0
tcc_lc_times_catsample[1,4,3,4,1] 0
tcc_lc_times_catsample[1,4,3,4,2] 0
tcc_lc_times_catsample[1,4,3,4,3] 0
tcc_lc_times_catsample[1,4,3,4,4] 0
tcc_lc_times_catsample[1,4,3,4,5] 0
tcc_lc_times_catsample[1,4,3,4,6] 0
tcc_lc_times_catsample[1,4,3,5,1] 0
tcc_lc_times_catsample[1,4,3,5,2] 0
tcc_lc_times_catsample[1,4,3,5,3] 0
tcc_lc_times_catsample[1,4,3,5,4] 0
tcc_lc_times_catsample[1,4,4,1,1] 0
tcc_lc_times_catsample[1,4,4,1,2] 0
tcc_lc_times_catsample[1,4,4,1,3] 0
tcc_lc_times_catsample[1,4,4,1,4] 0
tcc_lc_times_catsample[1,4,4,1,5] 0
tcc_lc_times_catsample[1,4,4,2,1] 0
tcc_lc_times_catsample[1,4,4,2,2] 0
tcc_lc_times_catsample[1,4,4,2,3] 0
tcc_lc_times_catsample[1,4,4,2,4] 0
tcc_lc_times_catsample[1,4,4,2,5] 0
tcc_lc_times_catsample[1,4,4,3,1] 0
tcc_lc_times_catsample[1,4,4,3,2] 0
tcc_lc_times_catsample[1,4,4,3,3] 0
tcc_lc_times_catsample[1,4,4,3,4] 0
tcc_lc_times_catsample[1,4,4,4,1] 0
tcc_lc_times_catsample[1,4,4,4,2] 0
tcc_lc_times_catsample[1,4,4,4,3] 0
tcc_lc_times_catsample[1,4,4,4,4] 0
tcc_lc_times_catsample[1,4,4,4,5] 0
tcc_lc_times_catsample[1,4,4,4,6] 0
tcc_lc_times_catsample[1,4,4,5,1] 0
tcc_lc_times_catsample[1,4,4,5,2] 0
tcc_lc_times_catsample[1,4,4,5,3] 0
tcc_lc_times_catsample[1,4,4,5,4] 0
tcc_lc_times_catsample[1,4,5,1,1] 0
tcc_lc_times_catsample[1,4,5,1,2] 0
tcc_lc_times_catsample[1,4,5,1,3] 0
tcc_lc_times_catsample[1,4,5,1,4] 0
tcc_lc_times_catsample[1,4,5,1,5] 0
tcc_lc_times_catsample[1,4,5,2,1] 0
tcc_lc_times_catsample[1,4,5,2,2] 0
tcc_lc_times_catsample[1,4,5,2,3] 0
tcc_lc_times_catsample[1,4,5,2,4] 0
tcc_lc_times_catsample[1,4,5,2,5] 0
tcc_lc_times_catsample[1,4,5,3,1] 0
tcc_lc_times_catsample[1,4,5,3,2] 0
tcc_lc_times_catsample[1,4,5,3,3] 0
tcc_lc_times_catsample[1,4,5,3,4] 0
tcc_lc_times_catsample[1,4,5,4,1] 0
tcc_lc_times_catsample[1,4,5,4,2] 0
tcc_lc_times_catsample[1,4,5,4,3] 0
tcc_lc_times_catsample[1,4,5,4,4] 0
tcc_lc_times_catsample[1,4,5,4,5] 0
tcc_lc_times_catsample[1,4,5,4,6] 0
tcc_lc_times_catsample[1,4,5,5,1] 0
tcc_lc_times_catsample[1,4,5,5,2] 0
tcc_lc_times_catsample[1,4,5,5,3] 0
tcc_lc_times_catsample[1,4,5,5,4] 0
tcc_lc_times_catsample[1,4,6,1,1] 0
tcc_lc_times_catsample[1,4,6,1,2] 0
tcc_lc_times_catsample[1,4,6,1,3] 0
tcc_lc_times_catsample[1,4,6,1,4] 0
tcc_lc_times_catsample[1,4,6,1,5] 0
tcc_lc_times_catsample[1,4,6,2,1] 0
tcc_lc_times_catsample[1,4,6,2,2] 0
tcc_lc_times_catsample[1,4,6,2,3] 0
tcc_lc_times_catsample[1,4,6,2,4] 0
tcc_lc_times_catsample[1,4,6,2,5] 0
tcc_lc_times_catsample[1,4,6,3,1] 0
tcc_lc_times_catsample[1,4,6,3,2] 0
tcc_lc_times_catsample[1,4,6,3,3] 0
tcc_lc_times_catsample[1,4,6,3,4] 0
tcc_lc_times_catsample[1,4,6,4,1] 0
tcc_lc_times_catsample[1,4,6,4,2] 0
tcc_lc_times_catsample[1,4,6,4,3] 0
tcc_lc_times_catsample[1,4,6,4,4] 0
tcc_lc_times_catsample[1,4,6,4,5] 0
tcc_lc_times_catsample[1,4,6,4,6] 0
tcc_lc_times_catsample[1,4,6,5,1] 0
tcc_lc_times_catsample[1,4,6,5,2] 0
tcc_lc_times_catsample[1,4,6,5,3] 0
tcc_lc_times_catsample[1,4,6,5,4] 0
tcc_lc_times_catsample[1,5,1,1,1] 0
tcc_lc_times_catsample[1,5,1,1,2] 0
tcc_lc_times_catsample[1,5,1,1,3] 0
tcc_lc_times_catsample[1,5,1,1,4] 0
tcc_lc_times_catsample[1,5,1,1,5] 0
tcc_lc_times_catsample[1,5,1,2,1] 0
tcc_lc_times_catsample[1,5,1,2,2] 0
tcc_lc_times_catsample[1,5,1,2,3] 0
tcc_lc_times_catsample[1,5,1,2,4] 0
tcc_lc_times_catsample[1,5,1,2,5] 0
tcc_lc_times_catsample[1,5,1,3,1] 0
tcc_lc_times_catsample[1,5,1,3,2] 0
tcc_lc_times_catsample[1,5,1,3,3] 0
tcc_lc_times_catsample[1,5,1,3,4] 0
tcc_lc_times_catsample[1,5,1,4,1] 0
tcc_lc_times_catsample[1,5,1,4,2] 0
tcc_lc_times_catsample[1,5,1,4,3] 0
tcc_lc_times_catsample[1,5,1,4,4] 0
tcc_lc_times_catsample[1,5,1,4,5] 0
tcc_lc_times_catsample[1,5,1,4,6] 0
tcc_lc_times_catsample[1,5,1,5,1] 0
tcc_lc_times_catsample[1,5,1,5,2] 0
tcc_lc_times_catsample[1,5,1,5,3] 0
tcc_lc_times_catsample[1,5,1,5,4] 0
tcc_lc_times_catsample[1,5,2,1,1] 0
tcc_lc_times_catsample[1,5,2,1,2] 0
tcc_lc_times_catsample[1,5,2,1,3] 0
tcc_lc_times_catsample[1,5,2,1,4] 0
tcc_lc_times_catsample[1,5,2,1,5] 0
tcc_lc_times_catsample[1,5,2,2,1] 0
tcc_lc_times_catsample[1,5,2,2,2] 0
tcc_lc_times_catsample[1,5,2,2,3] 0
tcc_lc_times_catsample[1,5,2,2,4] 0
tcc_lc_times_catsample[1,5,2,2,5] 0
tcc_lc_times_catsample[1,5,2,3,1] 0
tcc_lc_times_catsample[1,5,2,3,2] 0
tcc_lc_times_catsample[1,5,2,3,3] 0
tcc_lc_times_catsample[1,5,2,3,4] 0
tcc_lc_times_catsample[1,5,2,4,1] 0
tcc_lc_times_catsample[1,5,2,4,2] 0
tcc_lc_times_catsample[1,5,2,4,3] 0
tcc_lc_times_catsample[1,5,2,4,4] 0
tcc_lc_times_catsample[1,5,2,4,5] 0
tcc_lc_times_catsample[1,5,2,4,6] 0
tcc_lc_times_catsample[1,5,2,5,1] 0
tcc_lc_times_catsample[1,5,2,5,2] 0
tcc_lc_times_catsample[1,5,2,5,3] 0
tcc_lc_times_catsample[1,5,2,5,4] 0
tcc_lc_times_catsample[1,5,3,1,1] 0
tcc_lc_times_catsample[1,5,3,1,2] 0
tcc_lc_times_catsample[1,5,3,1,3] 0
tcc_lc_times_catsample[1,5,3,1,4] 0
tcc_lc_times_catsample[1,5,3,1,5] 0
tcc_lc_times_catsample[1,5,3,2,1] 0
tcc_lc_times_catsample[1,5,3,2,2] 0
tcc_lc_times_catsample[1,5,3,2,3] 6.2685345777169325e-03
tcc_lc_times_catsample[1,5,3,2,4] 0
tcc_lc_times_catsample[1,5,3,2,5] 0
tcc_lc_times_catsample[1,5,3,3,1] 0
tcc_lc_times_catsample[1,5,3,3,2] 0
tcc_lc_times_catsample[1,5,3,3,3] 6.2685345777169325e-03
tcc_lc_times_catsample[1,5,3,3,4] 0
tcc_lc_times_catsample[1,5,3,4,1] 0
tcc_lc_times_catsample[1,5,3,4,2] 0
tcc_lc_times_catsample[1,5,3,4,3] 0
tcc_lc_times_catsample[1,5,3,4,4] 0
tcc_lc_times_catsample[1,5,3,4,5] 0
tcc_lc_times_catsample[1,5,3,4,6] 0
tcc_lc_times_catsample[1,5,3,5,1] 0
tcc_lc_times_catsample[1,5,3,5,2] 0
tcc_lc_times_catsample[1,5,3,5,3] 6.2685345777169325e-03
tcc_lc_times_catsample[1,5,3,5,4] 0
tcc_lc_times_catsample[1,5,4,1,1] 0
tcc_lc_times_catsample[1,5,4,1,2] 0
tcc_lc_times_catsample[1,5,4,1,3] 0
tcc_lc_times_catsample[1,5,4,1,4] 0
tcc_lc_times_catsample[1,5,4,1,5] 0
tcc_lc_times_catsample[1,5,4,2,1] 0
tcc_lc_times_catsample[1,5,4,2,2] 0
tcc_lc_times_catsample[1,5,4,2,3] 0
tcc_lc_times_catsample[1,5,4,2,4] 0
tcc_lc_times_catsample[1,5,4,2,5] 0
tcc_lc_times_catsample[1,5,4,3,1] 0
tcc_lc_times_catsample[1,5,4,3,2] 0
tcc_lc_times_catsample[1,5,4,3,3] 0
tcc_lc_times_catsample[1,5,4,3,4] 0
tcc_lc_times_catsample[1,5,4,4,1] 0
tcc_lc_times_catsample[1,5,4,4,2] 0
tcc_lc_times_catsample[1,5,4,4,3] 0
tcc_lc_times_catsample[1,5,4,4,4] 0
tcc_lc_times_catsample[1,5,4,4,5] 0
tcc_lc_times_catsample[1,5,4,4,6] 0
tcc_lc_times_catsample[1,5,4,5,1] 0
tcc_lc_times_catsample[1,5,4,5,2] 0
tcc_lc_times_catsample[1,5,4,5,3] 0
tcc_lc_times_catsample[1,5,4,5,4] 0
ln_numweight_times_numsample[1,1] 7.2674815500354062e-03
ln_numweight_times_numsample[1,2] 3.3865552489926237e-03
ln_numweight_times_numsample[1,3] 4.9400378920716054e-03
ln_numweight_times_numsample[1,4] 2.4930470673961355e-03
ln_numweight_times_numsample[1,5] 1.3609561731968780e-03
lc_catweight_times_catsample[1,1,1] 0
lc_catweight_times_catsample[1,1,2] 0
lc_catweight_times_catsample[1,1,3] 0
lc_catweight_times_catsample[1,1,4] 0
lc_catweight_times_catsample[1,1,5] 0
lc_catweight_times_catsample[1,2,1] 0
lc_catweight_times_catsample[1,2,2] 0
lc_catweight_times_catsample[1,2,3] 0.00936460172565893
lc_catweight_times_catsample[1,2,4] 0
lc_catweight_times_catsample[1,2,5] 0
lc_catweight_times_catsample[1,3,1] 0
lc_catweight_times_catsample[1,3,2] 0
lc_catweight_times_catsample[1,3,3] -1.2206410401582496e-02
lc_catweight_times_catsample[1,3,4] 0
lc_catweight_times_catsample[1,4,1] 0
lc_catweight_times_catsample[1,4,2] 0
lc_catweight_times_catsample[1,4,3] 0
lc_catweight_times_catsample[1,4,4] 0
lc_catweight_times_catsample[1,4,5] 0
lc_catweight_times_catsample[1,4,6] 0
lc_catweight_times_catsample[1,5,1] 0
lc_catweight_times_catsample[1,5,2] 0
lc_catweight_times_catsample[1,5,3] 6.2685345777169334e-03
lc_catweight_times_catsample[1,5,4] 0
